c nIsolatedPIs 0
c maxPI 11
p cnf 471 1381
c gate 12 2 9 0
2 -12 0
9 -12 0
-2 -9 12 0
c gate 13 -2 -9 0
-2 -13 0
-9 -13 0
2 9 13 0
c gate 14 -12 -13 0
-12 -14 0
-13 -14 0
12 13 14 0
c gate 15 9 10 0
9 -15 0
10 -15 0
-9 -10 15 0
c gate 16 8 -15 0
8 -16 0
-15 -16 0
-8 15 16 0
c gate 17 14 -16 0
14 -17 0
-16 -17 0
-14 16 17 0
c gate 18 3 -17 0
3 -18 0
-17 -18 0
-3 17 18 0
c gate 19 3 -10 0
3 -19 0
-10 -19 0
-3 10 19 0
c gate 20 9 19 0
9 -20 0
19 -20 0
-9 -19 20 0
c gate 21 -3 10 0
-3 -21 0
10 -21 0
3 -10 21 0
c gate 22 -2 -21 0
-2 -22 0
-21 -22 0
2 21 22 0
c gate 23 -20 22 0
-20 -23 0
22 -23 0
20 -22 23 0
c gate 24 2 -3 0
2 -24 0
-3 -24 0
-2 3 24 0
c gate 25 -8 -12 0
-8 -25 0
-12 -25 0
8 12 25 0
c gate 26 -24 25 0
-24 -26 0
25 -26 0
24 -25 26 0
c gate 27 -23 26 0
-23 -27 0
26 -27 0
23 -26 27 0
c gate 28 8 10 0
8 -28 0
10 -28 0
-8 -10 28 0
c gate 29 -14 28 0
-14 -29 0
28 -29 0
14 -28 29 0
c gate 30 7 -10 0
7 -30 0
-10 -30 0
-7 10 30 0
c gate 31 -7 10 0
-7 -31 0
10 -31 0
7 -10 31 0
c gate 32 -30 -31 0
-30 -32 0
-31 -32 0
30 31 32 0
c gate 33 -2 -3 0
-2 -33 0
-3 -33 0
2 3 33 0
c gate 34 8 9 0
8 -34 0
9 -34 0
-8 -9 34 0
c gate 35 33 34 0
33 -35 0
34 -35 0
-33 -34 35 0
c gate 36 -32 35 0
-32 -36 0
35 -36 0
32 -35 36 0
c gate 37 -29 -36 0
-29 -37 0
-36 -37 0
29 36 37 0
c gate 38 -27 37 0
-27 -38 0
37 -38 0
27 -37 38 0
c gate 39 -18 38 0
-18 -39 0
38 -39 0
18 -38 39 0
c gate 40 8 -9 0
8 -40 0
-9 -40 0
-8 9 40 0
c gate 41 4 5 0
4 -41 0
5 -41 0
-4 -5 41 0
c gate 42 40 -41 0
40 -42 0
-41 -42 0
-40 41 42 0
c gate 43 -7 8 0
-7 -43 0
8 -43 0
7 -8 43 0
c gate 44 -7 9 0
-7 -44 0
9 -44 0
7 -9 44 0
c gate 45 7 -9 0
7 -45 0
-9 -45 0
-7 9 45 0
c gate 46 5 -45 0
5 -46 0
-45 -46 0
-5 45 46 0
c gate 47 -44 -46 0
-44 -47 0
-46 -47 0
44 46 47 0
c gate 48 -43 -47 0
-43 -48 0
-47 -48 0
43 47 48 0
c gate 49 -42 -48 0
-42 -49 0
-48 -49 0
42 48 49 0
c gate 50 -3 -49 0
-3 -50 0
-49 -50 0
3 49 50 0
c gate 51 -11 33 0
-11 -51 0
33 -51 0
11 -33 51 0
c gate 52 39 -49 0
39 -52 0
-49 -52 0
-39 49 52 0
c gate 53 51 -52 0
51 -53 0
-52 -53 0
-51 52 53 0
c gate 54 -3 -38 0
-3 -54 0
-38 -54 0
3 38 54 0
c gate 55 3 39 0
3 -55 0
39 -55 0
-3 -39 55 0
c gate 56 -54 -55 0
-54 -56 0
-55 -56 0
54 55 56 0
c gate 57 -2 11 0
-2 -57 0
11 -57 0
2 -11 57 0
c gate 58 2 -11 0
2 -58 0
-11 -58 0
-2 11 58 0
c gate 59 -57 -58 0
-57 -59 0
-58 -59 0
57 58 59 0
c gate 60 -56 -59 0
-56 -60 0
-59 -60 0
56 59 60 0
c gate 61 -11 39 0
-11 -61 0
39 -61 0
11 -39 61 0
c gate 62 2 -54 0
2 -62 0
-54 -62 0
-2 54 62 0
c gate 63 -61 62 0
-61 -63 0
62 -63 0
61 -62 63 0
c gate 64 -60 -63 0
-60 -64 0
-63 -64 0
60 63 64 0
c gate 65 -53 64 0
-53 -65 0
64 -65 0
53 -64 65 0
c gate 66 -11 -65 0
-11 -66 0
-65 -66 0
11 65 66 0
c gate 67 -50 -66 0
-50 -67 0
-66 -67 0
50 66 67 0
c gate 68 -10 -11 0
-10 -68 0
-11 -68 0
10 11 68 0
c gate 69 33 68 0
33 -69 0
68 -69 0
-33 -68 69 0
c gate 70 -65 -69 0
-65 -70 0
-69 -70 0
65 69 70 0
c gate 71 -11 49 0
-11 -71 0
49 -71 0
11 -49 71 0
c gate 72 -10 71 0
-10 -72 0
71 -72 0
10 -71 72 0
c gate 73 -9 11 0
-9 -73 0
11 -73 0
9 -11 73 0
c gate 74 -15 -73 0
-15 -74 0
-73 -74 0
15 73 74 0
c gate 75 -49 -74 0
-49 -75 0
-74 -75 0
49 74 75 0
c gate 76 8 -75 0
8 -76 0
-75 -76 0
-8 75 76 0
c gate 77 -72 76 0
-72 -77 0
76 -77 0
72 -76 77 0
c gate 78 9 -11 0
9 -78 0
-11 -78 0
-9 11 78 0
c gate 79 -47 -78 0
-47 -79 0
-78 -79 0
47 78 79 0
c gate 80 -8 -79 0
-8 -80 0
-79 -80 0
8 79 80 0
c gate 81 -71 80 0
-71 -81 0
80 -81 0
71 -80 81 0
c gate 82 10 11 0
10 -82 0
11 -82 0
-10 -11 82 0
c gate 83 -81 -82 0
-81 -83 0
-82 -83 0
81 82 83 0
c gate 84 -77 83 0
-77 -84 0
83 -84 0
77 -83 84 0
c gate 85 -49 84 0
-49 -85 0
84 -85 0
49 -84 85 0
c gate 86 70 85 0
70 -86 0
85 -86 0
-70 -85 86 0
c gate 87 49 -84 0
49 -87 0
-84 -87 0
-49 84 87 0
c gate 88 -85 -87 0
-85 -88 0
-87 -88 0
85 87 88 0
c gate 89 -70 88 0
-70 -89 0
88 -89 0
70 -88 89 0
c gate 90 33 -89 0
33 -90 0
-89 -90 0
-33 89 90 0
c gate 91 -86 90 0
-86 -91 0
90 -91 0
86 -90 91 0
c gate 92 -65 91 0
-65 -92 0
91 -92 0
65 -91 92 0
c gate 93 67 -92 0
67 -93 0
-92 -93 0
-67 92 93 0
c gate 94 -67 91 0
-67 -94 0
91 -94 0
67 -91 94 0
c gate 95 -9 -94 0
-9 -95 0
-94 -95 0
9 94 95 0
c gate 96 -93 95 0
-93 -96 0
95 -96 0
93 -95 96 0
c gate 97 9 11 0
9 -97 0
11 -97 0
-9 -11 97 0
c gate 98 65 97 0
65 -98 0
97 -98 0
-65 -97 98 0
c gate 99 -24 -98 0
-24 -99 0
-98 -99 0
24 98 99 0
c gate 100 -91 -99 0
-91 -100 0
-99 -100 0
91 99 100 0
c gate 101 -96 -100 0
-96 -101 0
-100 -101 0
96 100 101 0
c gate 102 39 -101 0
39 -102 0
-101 -102 0
-39 101 102 0
c gate 103 -39 91 0
-39 -103 0
91 -103 0
39 -91 103 0
c gate 104 -24 -92 0
-24 -104 0
-92 -104 0
24 92 104 0
c gate 105 9 -104 0
9 -105 0
-104 -105 0
-9 104 105 0
c gate 106 -103 -105 0
-103 -106 0
-105 -106 0
103 105 106 0
c gate 107 -11 -106 0
-11 -107 0
-106 -107 0
11 106 107 0
c gate 108 -102 -107 0
-102 -108 0
-107 -108 0
102 107 108 0
c gate 109 -8 -9 0
-8 -109 0
-9 -109 0
8 9 109 0
c gate 110 5 109 0
5 -110 0
109 -110 0
-5 -109 110 0
c gate 111 4 7 0
4 -111 0
7 -111 0
-4 -7 111 0
c gate 112 1 111 0
1 -112 0
111 -112 0
-1 -111 112 0
c gate 113 110 112 0
110 -113 0
112 -113 0
-110 -112 113 0
c gate 114 49 -113 0
49 -114 0
-113 -114 0
-49 113 114 0
c gate 115 7 -114 0
7 -115 0
-114 -115 0
-7 114 115 0
c gate 116 -7 114 0
-7 -116 0
114 -116 0
7 -114 116 0
c gate 117 -8 -10 0
-8 -117 0
-10 -117 0
8 10 117 0
c gate 118 -28 -117 0
-28 -118 0
-117 -118 0
28 117 118 0
c gate 119 -6 8 0
-6 -119 0
8 -119 0
6 -8 119 0
c gate 120 -9 -119 0
-9 -120 0
-119 -120 0
9 119 120 0
c gate 121 118 -120 0
118 -121 0
-120 -121 0
-118 120 121 0
c gate 122 -116 121 0
-116 -122 0
121 -122 0
116 -121 122 0
c gate 123 -115 122 0
-115 -123 0
122 -123 0
115 -122 123 0
c gate 124 9 -114 0
9 -124 0
-114 -124 0
-9 114 124 0
c gate 125 -6 -30 0
-6 -125 0
-30 -125 0
6 30 125 0
c gate 126 7 -8 0
7 -126 0
-8 -126 0
-7 8 126 0
c gate 127 -43 -126 0
-43 -127 0
-126 -127 0
43 126 127 0
c gate 128 6 -127 0
6 -128 0
-127 -128 0
-6 127 128 0
c gate 129 -125 -128 0
-125 -129 0
-128 -129 0
125 128 129 0
c gate 130 34 -129 0
34 -130 0
-129 -130 0
-34 129 130 0
c gate 131 -124 -130 0
-124 -131 0
-130 -131 0
124 130 131 0
c gate 132 -6 -7 0
-6 -132 0
-7 -132 0
6 7 132 0
c gate 133 -8 -132 0
-8 -133 0
-132 -133 0
8 132 133 0
c gate 134 32 133 0
32 -134 0
133 -134 0
-32 -133 134 0
c gate 135 7 -118 0
7 -135 0
-118 -135 0
-7 118 135 0
c gate 136 -119 -135 0
-119 -136 0
-135 -136 0
119 135 136 0
c gate 137 129 -136 0
129 -137 0
-136 -137 0
-129 136 137 0
c gate 138 -134 -137 0
-134 -138 0
-137 -138 0
134 137 138 0
c gate 139 -114 138 0
-114 -139 0
138 -139 0
114 -138 139 0
c gate 140 -131 -139 0
-131 -140 0
-139 -140 0
131 139 140 0
c gate 141 -31 43 0
-31 -141 0
43 -141 0
31 -43 141 0
c gate 142 -135 -141 0
-135 -142 0
-141 -142 0
135 141 142 0
c gate 143 6 -9 0
6 -143 0
-9 -143 0
-6 9 143 0
c gate 144 -142 143 0
-142 -144 0
143 -144 0
142 -143 144 0
c gate 145 -6 44 0
-6 -145 0
44 -145 0
6 -44 145 0
c gate 146 117 145 0
117 -146 0
145 -146 0
-117 -145 146 0
c gate 147 -144 -146 0
-144 -147 0
-146 -147 0
144 146 147 0
c gate 148 -140 147 0
-140 -148 0
147 -148 0
140 -147 148 0
c gate 149 -123 148 0
-123 -149 0
148 -149 0
123 -148 149 0
c gate 150 114 -149 0
114 -150 0
-149 -150 0
-114 149 150 0
c gate 151 -114 149 0
-114 -151 0
149 -151 0
114 -149 151 0
c gate 152 -150 -151 0
-150 -152 0
-151 -152 0
150 151 152 0
c gate 153 -11 -114 0
-11 -153 0
-114 -153 0
11 114 153 0
c gate 154 11 114 0
11 -154 0
114 -154 0
-11 -114 154 0
c gate 155 -153 -154 0
-153 -155 0
-154 -155 0
153 154 155 0
c gate 156 10 155 0
10 -156 0
155 -156 0
-10 -155 156 0
c gate 157 -152 156 0
-152 -157 0
156 -157 0
152 -156 157 0
c gate 158 9 -157 0
9 -158 0
-157 -158 0
-9 157 158 0
c gate 159 10 149 0
10 -159 0
149 -159 0
-10 -149 159 0
c gate 160 155 -159 0
155 -160 0
-159 -160 0
-155 159 160 0
c gate 161 10 -155 0
10 -161 0
-155 -161 0
-10 155 161 0
c gate 162 -160 -161 0
-160 -162 0
-161 -162 0
160 161 162 0
c gate 163 -9 149 0
-9 -163 0
149 -163 0
9 -149 163 0
c gate 164 82 -163 0
82 -164 0
-163 -164 0
-82 163 164 0
c gate 165 -9 -164 0
-9 -165 0
-164 -165 0
9 164 165 0
c gate 166 -162 165 0
-162 -166 0
165 -166 0
162 -165 166 0
c gate 167 -158 -166 0
-158 -167 0
-166 -167 0
158 166 167 0
c gate 168 68 152 0
68 -168 0
152 -168 0
-68 -152 168 0
c gate 169 97 -159 0
97 -169 0
-159 -169 0
-97 159 169 0
c gate 170 -168 -169 0
-168 -170 0
-169 -170 0
168 169 170 0
c gate 171 -167 170 0
-167 -171 0
170 -171 0
167 -170 171 0
c gate 172 8 -171 0
8 -172 0
-171 -172 0
-8 171 172 0
c gate 173 -15 -68 0
-15 -173 0
-68 -173 0
15 68 173 0
c gate 174 162 173 0
162 -174 0
173 -174 0
-162 -173 174 0
c gate 175 -10 149 0
-10 -175 0
149 -175 0
10 -149 175 0
c gate 176 78 -175 0
78 -176 0
-175 -176 0
-78 175 176 0
c gate 177 152 176 0
152 -177 0
176 -177 0
-152 -176 177 0
c gate 178 -164 -177 0
-164 -178 0
-177 -178 0
164 177 178 0
c gate 179 -174 178 0
-174 -179 0
178 -179 0
174 -178 179 0
c gate 180 -8 -179 0
-8 -180 0
-179 -180 0
8 179 180 0
c gate 181 9 -149 0
9 -181 0
-149 -181 0
-9 149 181 0
c gate 182 -11 -118 0
-11 -182 0
-118 -182 0
11 118 182 0
c gate 183 -163 182 0
-163 -183 0
182 -183 0
163 -182 183 0
c gate 184 -181 183 0
-181 -184 0
183 -184 0
181 -183 184 0
c gate 185 -180 -184 0
-180 -185 0
-184 -185 0
180 184 185 0
c gate 186 -172 185 0
-172 -186 0
185 -186 0
172 -185 186 0
c gate 187 -114 186 0
-114 -187 0
186 -187 0
114 -186 187 0
c gate 188 -38 51 0
-38 -188 0
51 -188 0
38 -51 188 0
c gate 189 175 188 0
175 -189 0
188 -189 0
-175 -188 189 0
c gate 190 69 -189 0
69 -190 0
-189 -190 0
-69 189 190 0
c gate 191 39 51 0
39 -191 0
51 -191 0
-39 -51 191 0
c gate 192 -152 191 0
-152 -192 0
191 -192 0
152 -191 192 0
c gate 193 -149 188 0
-149 -193 0
188 -193 0
149 -188 193 0
c gate 194 64 -193 0
64 -194 0
-193 -194 0
-64 193 194 0
c gate 195 -192 194 0
-192 -195 0
194 -195 0
192 -194 195 0
c gate 196 190 195 0
190 -196 0
195 -196 0
-190 -195 196 0
c gate 197 -190 -195 0
-190 -197 0
-195 -197 0
190 195 197 0
c gate 198 -196 -197 0
-196 -198 0
-197 -198 0
196 197 198 0
c gate 199 114 -186 0
114 -199 0
-186 -199 0
-114 186 199 0
c gate 200 198 -199 0
198 -200 0
-199 -200 0
-198 199 200 0
c gate 201 -187 200 0
-187 -201 0
200 -201 0
187 -200 201 0
c gate 202 187 -198 0
187 -202 0
-198 -202 0
-187 198 202 0
c gate 203 -186 196 0
-186 -203 0
196 -203 0
186 -196 203 0
c gate 204 33 -203 0
33 -204 0
-203 -204 0
-33 203 204 0
c gate 205 -202 204 0
-202 -205 0
204 -205 0
202 -204 205 0
c gate 206 -201 205 0
-201 -206 0
205 -206 0
201 -205 206 0
c gate 207 -11 -206 0
-11 -207 0
-206 -207 0
11 206 207 0
c gate 208 11 206 0
11 -208 0
206 -208 0
-11 -206 208 0
c gate 209 -207 -208 0
-207 -209 0
-208 -209 0
207 208 209 0
c gate 210 -9 195 0
-9 -210 0
195 -210 0
9 -195 210 0
c gate 211 -209 210 0
-209 -211 0
210 -211 0
209 -210 211 0
c gate 212 3 9 0
3 -212 0
9 -212 0
-3 -9 212 0
c gate 213 3 -149 0
3 -213 0
-149 -213 0
-3 149 213 0
c gate 214 33 149 0
33 -214 0
149 -214 0
-33 -149 214 0
c gate 215 -213 -214 0
-213 -215 0
-214 -215 0
213 214 215 0
c gate 216 7 -215 0
7 -216 0
-215 -216 0
-7 215 216 0
c gate 217 44 149 0
44 -217 0
149 -217 0
-44 -149 217 0
c gate 218 -213 -217 0
-213 -218 0
-217 -218 0
213 217 218 0
c gate 219 2 -218 0
2 -219 0
-218 -219 0
-2 218 219 0
c gate 220 -124 -150 0
-124 -220 0
-150 -220 0
124 150 220 0
c gate 221 -2 -220 0
-2 -221 0
-220 -221 0
2 220 221 0
c gate 222 -219 -221 0
-219 -222 0
-221 -222 0
219 221 222 0
c gate 223 -216 222 0
-216 -223 0
222 -223 0
216 -222 223 0
c gate 224 -212 223 0
-212 -224 0
223 -224 0
212 -223 224 0
c gate 225 -11 195 0
-11 -225 0
195 -225 0
11 -195 225 0
c gate 226 11 -195 0
11 -226 0
-195 -226 0
-11 195 226 0
c gate 227 -225 -226 0
-225 -227 0
-226 -227 0
225 226 227 0
c gate 228 9 -227 0
9 -228 0
-227 -228 0
-9 227 228 0
c gate 229 209 228 0
209 -229 0
228 -229 0
-209 -228 229 0
c gate 230 -224 -229 0
-224 -230 0
-229 -230 0
224 229 230 0
c gate 231 -211 230 0
-211 -231 0
230 -231 0
211 -230 231 0
c gate 232 -39 -224 0
-39 -232 0
-224 -232 0
39 224 232 0
c gate 233 11 -39 0
11 -233 0
-39 -233 0
-11 39 233 0
c gate 234 -61 -233 0
-61 -234 0
-233 -234 0
61 233 234 0
c gate 235 -73 -78 0
-73 -235 0
-78 -235 0
73 78 235 0
c gate 236 234 -235 0
234 -236 0
-235 -236 0
-234 235 236 0
c gate 237 227 236 0
227 -237 0
236 -237 0
-227 -236 237 0
c gate 238 206 -237 0
206 -238 0
-237 -238 0
-206 237 238 0
c gate 239 39 227 0
39 -239 0
227 -239 0
-39 -227 239 0
c gate 240 225 236 0
225 -240 0
236 -240 0
-225 -236 240 0
c gate 241 -239 -240 0
-239 -241 0
-240 -241 0
239 240 241 0
c gate 242 -206 241 0
-206 -242 0
241 -242 0
206 -241 242 0
c gate 243 -238 -242 0
-238 -243 0
-242 -243 0
238 242 243 0
c gate 244 224 -243 0
224 -244 0
-243 -244 0
-224 243 244 0
c gate 245 -232 -244 0
-232 -245 0
-244 -245 0
232 244 245 0
c gate 246 -231 245 0
-231 -246 0
245 -246 0
231 -245 246 0
c gate 247 -206 232 0
-206 -247 0
232 -247 0
206 -232 247 0
c gate 248 39 224 0
39 -248 0
224 -248 0
-39 -224 248 0
c gate 249 206 248 0
206 -249 0
248 -249 0
-206 -248 249 0
c gate 250 -247 -249 0
-247 -250 0
-249 -250 0
247 249 250 0
c gate 251 9 -250 0
9 -251 0
-250 -251 0
-9 250 251 0
c gate 252 -9 -232 0
-9 -252 0
-232 -252 0
9 232 252 0
c gate 253 -248 252 0
-248 -253 0
252 -253 0
248 -252 253 0
c gate 254 -206 253 0
-206 -254 0
253 -254 0
206 -253 254 0
c gate 255 -251 -254 0
-251 -255 0
-254 -255 0
251 254 255 0
c gate 256 11 -255 0
11 -256 0
-255 -256 0
-11 255 256 0
c gate 257 9 -224 0
9 -257 0
-224 -257 0
-9 224 257 0
c gate 258 -9 223 0
-9 -258 0
223 -258 0
9 -223 258 0
c gate 259 -257 -258 0
-257 -259 0
-258 -259 0
257 258 259 0
c gate 260 -248 -259 0
-248 -260 0
-259 -260 0
248 259 260 0
c gate 261 -209 260 0
-209 -261 0
260 -261 0
209 -260 261 0
c gate 262 -9 -11 0
-9 -262 0
-11 -262 0
9 11 262 0
c gate 263 247 262 0
247 -263 0
262 -263 0
-247 -262 263 0
c gate 264 -234 259 0
-234 -264 0
259 -264 0
234 -259 264 0
c gate 265 -207 264 0
-207 -265 0
264 -265 0
207 -264 265 0
c gate 266 -263 -265 0
-263 -266 0
-265 -266 0
263 265 266 0
c gate 267 -261 266 0
-261 -267 0
266 -267 0
261 -266 267 0
c gate 268 -256 267 0
-256 -268 0
267 -268 0
256 -267 268 0
c gate 269 -246 268 0
-246 -269 0
268 -269 0
246 -268 269 0
c gate 270 108 269 0
108 -270 0
269 -270 0
-108 -269 270 0
c gate 271 -108 -269 0
-108 -271 0
-269 -271 0
108 269 271 0
c gate 272 -91 206 0
-91 -272 0
206 -272 0
91 -206 272 0
c gate 273 91 -206 0
91 -273 0
-206 -273 0
-91 206 273 0
c gate 274 -5 34 0
-5 -274 0
34 -274 0
5 -34 274 0
c gate 275 -110 -274 0
-110 -275 0
-274 -275 0
110 274 275 0
c gate 276 -4 -9 0
-4 -276 0
-9 -276 0
4 9 276 0
c gate 277 8 -276 0
8 -277 0
-276 -277 0
-8 276 277 0
c gate 278 6 -109 0
6 -278 0
-109 -278 0
-6 109 278 0
c gate 279 -277 278 0
-277 -279 0
278 -279 0
277 -278 279 0
c gate 280 119 -276 0
119 -280 0
-276 -280 0
-119 276 280 0
c gate 281 -279 -280 0
-279 -281 0
-280 -281 0
279 280 281 0
c gate 282 5 -281 0
5 -282 0
-281 -282 0
-5 281 282 0
c gate 283 -5 6 0
-5 -283 0
6 -283 0
5 -6 283 0
c gate 284 40 283 0
40 -284 0
283 -284 0
-40 -283 284 0
c gate 285 -282 -284 0
-282 -285 0
-284 -285 0
282 284 285 0
c gate 286 275 285 0
275 -286 0
285 -286 0
-275 -285 286 0
c gate 287 7 -286 0
7 -287 0
-286 -287 0
-7 286 287 0
c gate 288 -4 -287 0
-4 -288 0
-287 -288 0
4 287 288 0
c gate 289 -8 262 0
-8 -289 0
262 -289 0
8 -262 289 0
c gate 290 -288 289 0
-288 -290 0
289 -290 0
288 -289 290 0
c gate 291 -1 109 0
-1 -291 0
109 -291 0
1 -109 291 0
c gate 292 -275 -291 0
-275 -292 0
-291 -292 0
275 291 292 0
c gate 293 -4 -5 0
-4 -293 0
-5 -293 0
4 5 293 0
c gate 294 -41 -293 0
-41 -294 0
-293 -294 0
41 293 294 0
c gate 295 291 294 0
291 -295 0
294 -295 0
-291 -294 295 0
c gate 296 -292 -295 0
-292 -296 0
-295 -296 0
292 295 296 0
c gate 297 285 296 0
285 -297 0
296 -297 0
-285 -296 297 0
c gate 298 111 -297 0
111 -298 0
-297 -298 0
-111 297 298 0
c gate 299 290 -298 0
290 -299 0
-298 -299 0
-290 298 299 0
c gate 300 -11 -286 0
-11 -300 0
-286 -300 0
11 286 300 0
c gate 301 -127 -235 0
-127 -301 0
-235 -301 0
127 235 301 0
c gate 302 -300 301 0
-300 -302 0
301 -302 0
300 -301 302 0
c gate 303 -109 -301 0
-109 -303 0
-301 -303 0
109 301 303 0
c gate 304 300 303 0
300 -304 0
303 -304 0
-300 -303 304 0
c gate 305 11 127 0
11 -305 0
127 -305 0
-11 -127 305 0
c gate 306 -34 -109 0
-34 -306 0
-109 -306 0
34 109 306 0
c gate 307 305 -306 0
305 -307 0
-306 -307 0
-305 306 307 0
c gate 308 -304 -307 0
-304 -308 0
-307 -308 0
304 307 308 0
c gate 309 -302 308 0
-302 -309 0
308 -309 0
302 -308 309 0
c gate 310 -299 309 0
-299 -310 0
309 -310 0
299 -309 310 0
c gate 311 -3 -310 0
-3 -311 0
-310 -311 0
3 310 311 0
c gate 312 -11 -311 0
-11 -312 0
-311 -312 0
11 311 312 0
c gate 313 -3 11 0
-3 -313 0
11 -313 0
3 -11 313 0
c gate 314 -310 313 0
-310 -314 0
313 -314 0
310 -313 314 0
c gate 315 7 212 0
7 -315 0
212 -315 0
-7 -212 315 0
c gate 316 6 33 0
6 -316 0
33 -316 0
-6 -33 316 0
c gate 317 -212 -316 0
-212 -317 0
-316 -317 0
212 316 317 0
c gate 318 -9 -33 0
-9 -318 0
-33 -318 0
9 33 318 0
c gate 319 317 -318 0
317 -319 0
-318 -319 0
-317 318 319 0
c gate 320 -315 -319 0
-315 -320 0
-319 -320 0
315 319 320 0
c gate 321 8 -320 0
8 -321 0
-320 -321 0
-8 320 321 0
c gate 322 -127 -317 0
-127 -322 0
-317 -322 0
127 317 322 0
c gate 323 -321 -322 0
-321 -323 0
-322 -323 0
321 322 323 0
c gate 324 -3 -323 0
-3 -324 0
-323 -324 0
3 323 324 0
c gate 325 -2 -10 0
-2 -325 0
-10 -325 0
2 10 325 0
c gate 326 2 10 0
2 -326 0
10 -326 0
-2 -10 326 0
c gate 327 -325 -326 0
-325 -327 0
-326 -327 0
325 326 327 0
c gate 328 -324 -327 0
-324 -328 0
-327 -328 0
324 327 328 0
c gate 329 -314 328 0
-314 -329 0
328 -329 0
314 -328 329 0
c gate 330 -312 329 0
-312 -330 0
329 -330 0
312 -329 330 0
c gate 331 -212 323 0
-212 -331 0
323 -331 0
212 -323 331 0
c gate 332 -10 331 0
-10 -332 0
331 -332 0
10 -331 332 0
c gate 333 2 -34 0
2 -333 0
-34 -333 0
-2 34 333 0
c gate 334 -212 333 0
-212 -334 0
333 -334 0
212 -333 334 0
c gate 335 -11 -334 0
-11 -335 0
-334 -335 0
11 334 335 0
c gate 336 2 11 0
2 -336 0
11 -336 0
-2 -11 336 0
c gate 337 -335 -336 0
-335 -337 0
-336 -337 0
335 336 337 0
c gate 338 -332 337 0
-332 -338 0
337 -338 0
332 -337 338 0
c gate 339 310 -338 0
310 -339 0
-338 -339 0
-310 338 339 0
c gate 340 82 334 0
82 -340 0
334 -340 0
-82 -334 340 0
c gate 341 -21 -57 0
-21 -341 0
-57 -341 0
21 57 341 0
c gate 342 -331 341 0
-331 -342 0
341 -342 0
331 -341 342 0
c gate 343 325 342 0
325 -343 0
342 -343 0
-325 -342 343 0
c gate 344 -340 -343 0
-340 -344 0
-343 -344 0
340 343 344 0
c gate 345 -310 344 0
-310 -345 0
344 -345 0
310 -344 345 0
c gate 346 -3 -345 0
-3 -346 0
-345 -346 0
3 345 346 0
c gate 347 -339 346 0
-339 -347 0
346 -347 0
339 -346 347 0
c gate 348 -68 -82 0
-68 -348 0
-82 -348 0
68 82 348 0
c gate 349 342 348 0
342 -349 0
348 -349 0
-342 -348 349 0
c gate 350 -73 -324 0
-73 -350 0
-324 -350 0
73 324 350 0
c gate 351 -313 327 0
-313 -351 0
327 -351 0
313 -327 351 0
c gate 352 -350 351 0
-350 -352 0
351 -352 0
350 -351 352 0
c gate 353 -349 -352 0
-349 -353 0
-352 -353 0
349 352 353 0
c gate 354 -347 353 0
-347 -354 0
353 -354 0
347 -353 354 0
c gate 355 -330 354 0
-330 -355 0
354 -355 0
330 -354 355 0
c gate 356 327 -331 0
327 -356 0
-331 -356 0
-327 331 356 0
c gate 357 -327 331 0
-327 -357 0
331 -357 0
327 -331 357 0
c gate 358 4 287 0
4 -358 0
287 -358 0
-4 -287 358 0
c gate 359 290 -358 0
290 -359 0
-358 -359 0
-290 358 359 0
c gate 360 309 -359 0
309 -360 0
-359 -360 0
-309 359 360 0
c gate 361 357 -360 0
357 -361 0
-360 -361 0
-357 360 361 0
c gate 362 -356 -361 0
-356 -362 0
-361 -362 0
356 361 362 0
c gate 363 -11 -362 0
-11 -363 0
-362 -363 0
11 362 363 0
c gate 364 -344 -360 0
-344 -364 0
-360 -364 0
344 360 364 0
c gate 365 338 360 0
338 -365 0
360 -365 0
-338 -360 365 0
c gate 366 -364 -365 0
-364 -366 0
-365 -366 0
364 365 366 0
c gate 367 -363 366 0
-363 -367 0
366 -367 0
363 -366 367 0
c gate 368 -3 -367 0
-3 -368 0
-367 -368 0
3 367 368 0
c gate 369 3 -356 0
3 -369 0
-356 -369 0
-3 356 369 0
c gate 370 357 360 0
357 -370 0
360 -370 0
-357 -360 370 0
c gate 371 -369 -370 0
-369 -371 0
-370 -371 0
369 370 371 0
c gate 372 11 -371 0
11 -372 0
-371 -372 0
-11 371 372 0
c gate 373 -349 -372 0
-349 -373 0
-372 -373 0
349 372 373 0
c gate 374 -368 373 0
-368 -374 0
373 -374 0
368 -373 374 0
c gate 375 -355 -374 0
-355 -375 0
-374 -375 0
355 374 375 0
c gate 376 355 374 0
355 -376 0
374 -376 0
-355 -374 376 0
c gate 377 -375 -376 0
-375 -377 0
-376 -377 0
375 376 377 0
c gate 378 5 -6 0
5 -378 0
-6 -378 0
-5 6 378 0
c gate 379 -283 -378 0
-283 -379 0
-378 -379 0
283 378 379 0
c gate 380 -10 33 0
-10 -380 0
33 -380 0
10 -33 380 0
c gate 381 -379 380 0
-379 -381 0
380 -381 0
379 -380 381 0
c gate 382 -82 -381 0
-82 -382 0
-381 -382 0
82 381 382 0
c gate 383 341 -382 0
341 -383 0
-382 -383 0
-341 382 383 0
c gate 384 6 7 0
6 -384 0
7 -384 0
-6 -7 384 0
c gate 385 -132 -384 0
-132 -385 0
-384 -385 0
132 384 385 0
c gate 386 10 -385 0
10 -386 0
-385 -386 0
-10 385 386 0
c gate 387 8 -294 0
8 -387 0
-294 -387 0
-8 294 387 0
c gate 388 -9 -387 0
-9 -388 0
-387 -388 0
9 387 388 0
c gate 389 -10 -388 0
-10 -389 0
-388 -389 0
10 388 389 0
c gate 390 -11 -389 0
-11 -390 0
-389 -390 0
11 389 390 0
c gate 391 -386 390 0
-386 -391 0
390 -391 0
386 -390 391 0
c gate 392 -10 127 0
-10 -392 0
127 -392 0
10 -127 392 0
c gate 393 -391 -392 0
-391 -393 0
-392 -393 0
391 392 393 0
c gate 394 -1 -111 0
-1 -394 0
-111 -394 0
1 111 394 0
c gate 395 -112 -394 0
-112 -395 0
-394 -395 0
112 394 395 0
c gate 396 -8 -395 0
-8 -396 0
-395 -396 0
8 395 396 0
c gate 397 388 -396 0
388 -397 0
-396 -397 0
-388 396 397 0
c gate 398 -10 -397 0
-10 -398 0
-397 -398 0
10 397 398 0
c gate 399 -393 -398 0
-393 -399 0
-398 -399 0
393 398 399 0
c gate 400 -305 -399 0
-305 -400 0
-399 -400 0
305 399 400 0
c gate 401 59 400 0
59 -401 0
400 -401 0
-59 -400 401 0
c gate 402 -59 -400 0
-59 -402 0
-400 -402 0
59 400 402 0
c gate 403 -3 -402 0
-3 -403 0
-402 -403 0
3 402 403 0
c gate 404 -401 403 0
-401 -404 0
403 -404 0
401 -403 404 0
c gate 405 8 24 0
8 -405 0
24 -405 0
-8 -24 405 0
c gate 406 -19 -381 0
-19 -406 0
-381 -406 0
19 381 406 0
c gate 407 -405 406 0
-405 -407 0
406 -407 0
405 -406 407 0
c gate 408 2 -407 0
2 -408 0
-407 -408 0
-2 407 408 0
c gate 409 -2 406 0
-2 -409 0
406 -409 0
2 -406 409 0
c gate 410 -408 -409 0
-408 -410 0
-409 -410 0
408 409 410 0
c gate 411 -51 410 0
-51 -411 0
410 -411 0
51 -410 411 0
c gate 412 404 411 0
404 -412 0
411 -412 0
-404 -411 412 0
c gate 413 -383 -412 0
-383 -413 0
-412 -413 0
383 412 413 0
c gate 414 9 -413 0
9 -414 0
-413 -414 0
-9 413 414 0
c gate 415 -9 -410 0
-9 -415 0
-410 -415 0
9 410 415 0
c gate 416 404 415 0
404 -416 0
415 -416 0
-404 -415 416 0
c gate 417 -305 -407 0
-305 -417 0
-407 -417 0
305 407 417 0
c gate 418 97 417 0
97 -418 0
417 -418 0
-97 -417 418 0
c gate 419 -11 -399 0
-11 -419 0
-399 -419 0
11 399 419 0
c gate 420 -305 -419 0
-305 -420 0
-419 -420 0
305 419 420 0
c gate 421 -9 -407 0
-9 -421 0
-407 -421 0
9 407 421 0
c gate 422 9 407 0
9 -422 0
407 -422 0
-9 -407 422 0
c gate 423 -421 -422 0
-421 -423 0
-422 -423 0
421 422 423 0
c gate 424 -420 423 0
-420 -424 0
423 -424 0
420 -423 424 0
c gate 425 -418 -424 0
-418 -425 0
-424 -425 0
418 424 425 0
c gate 426 3 -425 0
3 -426 0
-425 -426 0
-3 425 426 0
c gate 427 -9 -19 0
-9 -427 0
-19 -427 0
9 19 427 0
c gate 428 -3 407 0
-3 -428 0
407 -428 0
3 -407 428 0
c gate 429 -427 -428 0
-427 -429 0
-428 -429 0
427 428 429 0
c gate 430 -9 428 0
-9 -430 0
428 -430 0
9 -428 430 0
c gate 431 -429 -430 0
-429 -431 0
-430 -431 0
429 430 431 0
c gate 432 420 431 0
420 -432 0
431 -432 0
-420 -431 432 0
c gate 433 -426 -432 0
-426 -433 0
-432 -433 0
426 432 433 0
c gate 434 -416 433 0
-416 -434 0
433 -434 0
416 -433 434 0
c gate 435 -414 434 0
-414 -435 0
434 -435 0
414 -434 435 0
c gate 436 -11 -391 0
-11 -436 0
-391 -436 0
11 391 436 0
c gate 437 409 436 0
409 -437 0
436 -437 0
-409 -436 437 0
c gate 438 -3 -305 0
-3 -438 0
-305 -438 0
3 305 438 0
c gate 439 -408 438 0
-408 -439 0
438 -439 0
408 -438 439 0
c gate 440 -437 439 0
-437 -440 0
439 -440 0
437 -439 440 0
c gate 441 336 407 0
336 -441 0
407 -441 0
-336 -407 441 0
c gate 442 19 -390 0
19 -442 0
-390 -442 0
-19 390 442 0
c gate 443 -441 -442 0
-441 -443 0
-442 -443 0
441 442 443 0
c gate 444 -440 443 0
-440 -444 0
443 -444 0
440 -443 444 0
c gate 445 9 -444 0
9 -445 0
-444 -445 0
-9 444 445 0
c gate 446 -305 -391 0
-305 -446 0
-391 -446 0
305 391 446 0
c gate 447 59 446 0
59 -447 0
446 -447 0
-59 -446 447 0
c gate 448 -59 -446 0
-59 -448 0
-446 -448 0
59 446 448 0
c gate 449 -410 -448 0
-410 -449 0
-448 -449 0
410 448 449 0
c gate 450 -447 449 0
-447 -450 0
449 -450 0
447 -449 450 0
c gate 451 417 -436 0
417 -451 0
-436 -451 0
-417 436 451 0
c gate 452 -3 -451 0
-3 -452 0
-451 -452 0
3 451 452 0
c gate 453 -450 452 0
-450 -453 0
452 -453 0
450 -452 453 0
c gate 454 427 -453 0
427 -454 0
-453 -454 0
-427 453 454 0
c gate 455 -445 -454 0
-445 -455 0
-454 -455 0
445 454 455 0
c gate 456 435 -455 0
435 -456 0
-455 -456 0
-435 455 456 0
c gate 457 -435 455 0
-435 -457 0
455 -457 0
435 -455 457 0
c gate 458 -65 195 0
-65 -458 0
195 -458 0
65 -195 458 0
c gate 459 65 -195 0
65 -459 0
-195 -459 0
-65 195 459 0
c gate 460 109 132 0
109 -460 0
132 -460 0
-109 -132 460 0
c gate 461 69 460 0
69 -461 0
460 -461 0
-69 -460 461 0
c gate 462 -189 -461 0
-189 -462 0
-461 -462 0
189 461 462 0
c gate 463 -459 462 0
-459 -463 0
462 -463 0
459 -462 463 0
c gate 464 -458 463 0
-458 -464 0
463 -464 0
458 -463 464 0
c gate 465 -457 464 0
-457 -465 0
464 -465 0
457 -464 465 0
c gate 466 -456 465 0
-456 -466 0
465 -466 0
456 -465 466 0
c gate 467 -377 466 0
-377 -467 0
466 -467 0
377 -466 467 0
c gate 468 -273 467 0
-273 -468 0
467 -468 0
273 -467 468 0
c gate 469 -272 468 0
-272 -469 0
468 -469 0
272 -468 469 0
c gate 470 -271 469 0
-271 -470 0
469 -470 0
271 -469 470 0
c gate 471 -270 470 0
-270 -471 0
470 -471 0
270 -470 471 0
c PO
-471 0
